c Result of efficient AIG-to-CNF conversion using package CNF
p cnf 182 713
-2 3 118 0
-2 -3 -118 0
2 -3 118 0
2 3 -118 0
-3 4 73 0
-3 -4 -73 0
3 -4 73 0
3 4 -73 0
-4 -5 -50 0
-4 5 50 0
4 5 -50 0
4 -5 50 0
-5 -6 -29 0
-5 6 29 0
5 6 -29 0
5 -6 29 0
-6 7 15 0
-6 -7 -15 0
6 -7 15 0
6 7 -15 0
-7 8 11 0
-7 -8 -11 0
7 -8 11 0
7 8 -11 0
-8 -9 -10 0
-8 9 10 0
8 9 -10 0
8 -9 10 0
9 -172 -173 0
-9 172 0
-9 173 0
10 -178 -181 0
-10 178 0
-10 181 0
-11 12 14 0
-11 13 14 0
-11 12 13 0
11 -12 -13 0
11 -13 -14 0
11 -12 -14 0
12 -172 -175 0
-12 172 0
-12 175 0
13 -173 -178 0
-13 173 0
-13 178 0
14 -176 -181 0
-14 176 0
-14 181 0
-15 16 18 0
-15 18 28 0
-15 16 28 0
15 -16 -28 0
15 -18 -28 0
15 -16 -18 0
-16 -17 -14 0
-16 17 14 0
16 17 -14 0
16 -17 14 0
-17 -12 -13 0
-17 12 13 0
17 12 -13 0
17 -12 13 0
-18 19 26 0
-18 20 21 0
-18 20 26 0
-18 19 21 0
18 -19 -20 0
18 -21 -26 0
19 -172 -177 0
-19 172 0
-19 177 0
20 -172 -177 -178 -180 0
-20 180 0
-20 172 0
-20 178 0
-20 177 0
-21 -22 -25 0
-21 22 25 0
21 22 -25 0
21 -22 25 0
-22 -23 -24 0
-22 23 24 0
22 23 -24 0
22 -23 24 0
23 -175 -178 0
-23 175 0
-23 178 0
24 -173 -176 0
-24 173 0
-24 176 0
25 -179 -181 0
-25 179 0
-25 181 0
-26 27 0
26 -27 0
27 -19 20 0
-27 19 0
-27 -20 0
-28 23 25 0
-28 24 25 0
-28 23 24 0
28 -23 -24 0
28 -24 -25 0
28 -23 -25 0
29 -30 -32 0
-29 30 0
-29 32 0
-30 28 31 0
-30 -28 -31 0
30 -28 31 0
30 28 -31 0
-31 16 18 0
-31 -16 -18 0
31 -16 18 0
31 16 -18 0
-32 33 34 0
-32 34 49 0
-32 33 49 0
32 -33 -49 0
32 -34 -49 0
32 -33 -34 0
-33 21 26 0
-33 -21 -26 0
33 -21 26 0
33 21 -26 0
-34 35 38 0
-34 38 44 0
-34 35 44 0
34 -35 -44 0
34 -38 -44 0
34 -35 -38 0
-35 -36 -37 0
-35 36 37 0
35 36 -37 0
35 -36 37 0
36 -172 -180 0
-36 172 0
-36 180 0
37 -177 -178 0
-37 177 0
-37 178 0
-38 39 40 0
-38 39 41 0
38 -39 0
38 -40 -41 0
39 -171 -172 -178 -180 0
-39 180 0
-39 171 0
-39 178 0
-39 172 0
40 -176 -177 0
-40 176 0
-40 177 0
-41 -42 -43 0
-41 42 43 0
41 42 -43 0
41 -42 43 0
42 -171 -172 0
-42 171 0
-42 172 0
43 -178 -180 0
-43 178 0
-43 180 0
-44 -45 -48 0
-44 45 48 0
44 45 -48 0
44 -45 48 0
-45 -46 -47 0
-45 46 47 0
45 46 -47 0
45 -46 47 0
46 -175 -176 0
-46 175 0
-46 176 0
47 -173 -179 0
-47 173 0
-47 179 0
48 -170 -181 0
-48 170 0
-48 181 0
-49 46 48 0
-49 47 48 0
-49 46 47 0
49 -46 -47 0
49 -47 -48 0
49 -46 -48 0
50 -51 -52 0
-50 51 0
-50 52 0
-51 30 32 0
-51 -30 -32 0
51 -30 32 0
51 30 -32 0
52 -53 -55 0
-52 53 0
-52 55 0
-53 49 54 0
-53 -49 -54 0
53 -49 54 0
53 49 -54 0
-54 33 34 0
-54 -33 -34 0
54 -33 34 0
54 33 -34 0
-55 56 58 0
-55 58 72 0
-55 56 72 0
55 -56 -72 0
55 -58 -72 0
55 -56 -58 0
-56 44 57 0
-56 -44 -57 0
56 -44 57 0
56 44 -57 0
-57 35 38 0
-57 -35 -38 0
57 -35 38 0
57 35 -38 0
-58 60 66 0
-58 59 71 0
-58 59 66 0
-58 60 71 0
58 -66 -71 0
58 -59 -60 0
-59 40 41 0
-59 -40 -41 0
59 -40 41 0
59 40 -41 0
-60 61 62 0
-60 61 63 0
60 -61 0
60 -62 -63 0
61 -171 -176 -178 -180 0
-61 180 0
-61 171 0
-61 178 0
-61 176 0
62 -177 -179 0
-62 177 0
-62 179 0
-63 -64 -65 0
-63 64 65 0
63 64 -65 0
63 -64 65 0
64 -171 -178 0
-64 171 0
-64 178 0
65 -176 -180 0
-65 176 0
-65 180 0
-66 -67 -70 0
-66 67 70 0
66 67 -70 0
66 -67 70 0
-67 -68 -69 0
-67 68 69 0
67 68 -69 0
67 -68 69 0
68 -175 -179 0
-68 175 0
-68 179 0
69 -170 -173 0
-69 170 0
-69 173 0
70 -174 -181 0
-70 174 0
-70 181 0
-71 59 60 0
-71 -59 -60 0
71 -59 60 0
71 59 -60 0
-72 68 70 0
-72 69 70 0
-72 68 69 0
72 -68 -69 0
72 -69 -70 0
72 -68 -70 0
-73 74 94 0
-73 74 75 0
-73 75 94 0
73 -75 -94 0
73 -74 -94 0
73 -74 -75 0
-74 -51 -52 0
-74 51 52 0
74 51 -52 0
74 -51 52 0
75 -76 -77 0
-75 76 0
-75 77 0
-76 53 55 0
-76 -53 -55 0
76 -53 55 0
76 53 -55 0
77 -78 -80 0
-77 78 0
-77 80 0
-78 72 79 0
-78 -72 -79 0
78 -72 79 0
78 72 -79 0
-79 56 58 0
-79 -56 -58 0
79 -56 58 0
79 56 -58 0
-80 81 82 0
-80 82 93 0
-80 81 93 0
80 -82 -93 0
80 -81 -82 0
80 -81 -93 0
-81 66 71 0
-81 -66 -71 0
81 -66 71 0
81 66 -71 0
-82 83 84 0
-82 84 90 0
-82 83 90 0
82 -83 -90 0
82 -84 -90 0
82 -83 -84 0
-83 62 63 0
-83 -62 -63 0
83 -62 63 0
83 62 -63 0
-84 85 86 0
-84 85 87 0
84 -85 0
84 -86 -87 0
85 -171 -176 -179 -180 0
-85 180 0
-85 171 0
-85 179 0
-85 176 0
86 -170 -177 0
-86 170 0
-86 177 0
-87 -88 -89 0
-87 88 89 0
87 88 -89 0
87 -88 89 0
88 -171 -176 0
-88 171 0
-88 176 0
89 -179 -180 0
-89 179 0
-89 180 0
-90 -91 -92 0
-90 91 92 0
90 91 -92 0
90 -91 92 0
91 -170 -175 0
-91 170 0
-91 175 0
92 -173 -174 0
-92 173 0
-92 174 0
93 -91 -92 0
-93 91 0
-93 92 0
-94 96 111 0
-94 95 96 0
-94 95 111 0
94 -95 -96 0
94 -96 -111 0
94 -95 -111 0
-95 -76 -77 0
-95 76 77 0
95 76 -77 0
95 -76 77 0
96 -97 -98 0
-96 97 0
-96 98 0
-97 78 80 0
-97 -78 -80 0
97 -78 80 0
97 78 -80 0
98 -99 -101 0
-98 99 0
-98 101 0
-99 93 100 0
-99 -93 -100 0
99 -93 100 0
99 93 -100 0
-100 81 82 0
-100 -81 -82 0
100 -81 82 0
100 81 -82 0
101 -102 -104 0
-101 102 0
-101 104 0
-102 90 103 0
-102 -90 -103 0
102 -90 103 0
102 90 -103 0
-103 83 84 0
-103 -83 -84 0
103 -83 84 0
103 83 -84 0
-104 105 106 0
-104 106 110 0
-104 105 110 0
104 -106 -110 0
104 -105 -106 0
104 -105 -110 0
-105 86 87 0
-105 -86 -87 0
105 -86 87 0
105 86 -87 0
-106 107 109 0
-106 108 109 0
-106 107 108 0
106 -107 -108 0
106 -108 -109 0
106 -107 -109 0
107 -171 -179 0
-107 171 0
-107 179 0
108 -170 -180 0
-108 170 0
-108 180 0
109 -174 -177 0
-109 174 0
-109 177 0
110 -174 -175 0
-110 174 0
-110 175 0
111 97 -98 -112 0
111 -97 98 -112 0
-111 112 0
-111 97 98 0
-111 -97 -98 0
112 -99 102 -104 -113 0
112 -99 -102 104 -113 0
-112 113 0
-112 102 104 0
-112 99 0
-112 -102 -104 0
113 110 -114 -115 -117 0
113 -110 114 -115 -117 0
-113 115 0
-113 110 114 0
-113 117 0
-113 -110 -114 0
-114 105 106 0
-114 -105 -106 0
114 -105 106 0
114 105 -106 0
-115 109 116 0
-115 -109 -116 0
115 -109 116 0
115 109 -116 0
-116 -107 -108 0
-116 107 108 0
116 107 -108 0
116 -107 108 0
117 -170 -171 -174 -180 0
-117 180 0
-117 170 0
-117 174 0
-117 171 0
-118 119 128 0
-118 -119 -128 0
118 -119 128 0
118 119 -128 0
-119 120 122 0
-119 -120 -122 0
119 -120 122 0
119 120 -122 0
-120 8 121 0
-120 -8 -121 0
120 -8 121 0
120 8 -121 0
-121 12 14 0
-121 13 14 0
-121 12 13 0
121 -12 -13 0
121 -13 -14 0
121 -12 -14 0
-122 123 124 0
-122 124 126 0
-122 123 126 0
122 -123 -126 0
122 -124 -126 0
122 -123 -124 0
-123 19 25 0
-123 23 25 0
-123 19 23 0
123 -19 -23 0
123 -23 -25 0
123 -19 -25 0
-124 13 125 0
-124 -13 -125 0
124 -13 125 0
124 13 -125 0
-125 -12 -14 0
-125 12 14 0
125 12 -14 0
125 -12 14 0
-126 24 127 0
-126 20 24 0
-126 20 127 0
126 -20 -24 0
126 -24 -127 0
126 -20 -127 0
-127 46 48 0
-127 47 48 0
-127 46 47 0
127 -46 -47 0
127 -47 -48 0
127 -46 -48 0
-128 129 131 0
-128 131 138 0
-128 129 138 0
128 -129 -138 0
128 -131 -138 0
128 -129 -131 0
-129 126 130 0
-129 -126 -130 0
129 -126 130 0
129 126 -130 0
-130 123 124 0
-130 -123 -124 0
130 -123 124 0
130 123 -124 0
-131 132 134 0
-131 134 136 0
-131 132 136 0
131 -132 -136 0
131 -134 -136 0
131 -132 -134 0
-132 23 133 0
-132 -23 -133 0
132 -23 133 0
132 23 -133 0
-133 -19 -25 0
-133 19 25 0
133 19 -25 0
133 -19 25 0
-134 35 135 0
-134 35 39 0
-134 39 135 0
134 -39 -135 0
134 -35 -135 0
134 -35 -39 0
-135 40 70 0
-135 68 70 0
-135 40 68 0
135 -40 -68 0
135 -68 -70 0
135 -40 -70 0
-136 127 137 0
-136 -127 -137 0
136 -127 137 0
136 127 -137 0
-137 -20 -24 0
-137 20 24 0
137 20 -24 0
137 -20 24 0
-138 139 143 0
-138 143 145 0
-138 139 145 0
138 -139 -145 0
138 -143 -145 0
138 -139 -143 0
-139 44 140 0
-139 140 141 0
-139 44 141 0
139 -44 -141 0
139 -140 -141 0
139 -44 -140 0
-140 61 69 0
-140 41 61 0
-140 41 69 0
140 -41 -61 0
140 -61 -69 0
140 -41 -69 0
-141 135 142 0
-141 -135 -142 0
141 -135 142 0
141 135 -142 0
-142 -35 -39 0
-142 35 39 0
142 35 -39 0
142 -35 39 0
-143 136 144 0
-143 -136 -144 0
143 -136 144 0
143 136 -144 0
-144 132 134 0
-144 -132 -134 0
144 -132 134 0
144 132 -134 0
-145 146 152 0
-145 152 154 0
-145 146 154 0
145 -146 -154 0
145 -152 -154 0
145 -146 -152 0
-146 147 148 0
-146 148 150 0
-146 147 150 0
146 -147 -150 0
146 -148 -150 0
146 -147 -148 0
-147 62 92 0
-147 91 92 0
-147 62 91 0
147 -62 -91 0
147 -91 -92 0
147 -62 -92 0
-148 68 149 0
-148 -68 -149 0
148 -68 149 0
148 68 -149 0
-149 -40 -70 0
-149 40 70 0
149 40 -70 0
149 -40 70 0
-150 41 151 0
-150 -41 -151 0
150 -41 151 0
150 41 -151 0
-151 -61 -69 0
-151 61 69 0
151 61 -69 0
151 -61 69 0
-152 141 153 0
-152 -141 -153 0
152 -141 153 0
152 141 -153 0
-153 44 140 0
-153 -44 -140 0
153 -44 140 0
153 44 -140 0
-154 155 158 0
-154 158 160 0
-154 155 160 0
154 -155 -160 0
154 -158 -160 0
154 -155 -158 0
-155 63 156 0
-155 63 85 0
-155 85 156 0
155 -85 -156 0
155 -63 -156 0
155 -63 -85 0
-156 91 157 0
-156 -91 -157 0
156 -91 157 0
156 91 -157 0
-157 -62 -92 0
-157 62 92 0
157 62 -92 0
157 -62 92 0
-158 150 159 0
-158 -150 -159 0
158 -150 159 0
158 150 -159 0
-159 147 148 0
-159 -147 -148 0
159 -147 148 0
159 147 -148 0
-160 161 163 0
-160 163 165 0
-160 161 165 0
160 -161 -165 0
160 -163 -165 0
160 -161 -163 0
-161 86 162 0
-161 110 162 0
-161 86 110 0
161 -86 -110 0
161 -110 -162 0
161 -86 -162 0
162 -108 -109 0
-162 108 0
-162 109 0
-163 156 164 0
-163 -156 -164 0
163 -156 164 0
163 156 -164 0
-164 -63 -85 0
-164 63 85 0
164 63 -85 0
164 -63 85 0
-165 87 166 0
-165 166 168 0
-165 87 168 0
165 -87 -168 0
165 -166 -168 0
165 -87 -166 0
-166 162 167 0
-166 -162 -167 0
166 -162 167 0
166 162 -167 0
-167 -86 -110 0
-167 86 110 0
167 86 -110 0
167 -86 110 0
-168 117 169 0
-168 107 117 0
-168 107 169 0
168 -107 -117 0
168 -117 -169 0
168 -107 -169 0
-169 -108 -109 0
-169 108 109 0
169 108 -109 0
169 -108 109 0
-182 0
2 0

